p ds 20 5
1 4
1 5
1 13
1 19
1 20
2 4
2 13
2 14
2 18
3 6
3 7
3 8
3 9
3 11
3 18
3 19
4 7
4 11
4 17
5 8
5 14
5 15
5 16
5 17
5 19
6 8
6 13
6 18
7 16
8 10
8 14
8 15
8 16
8 18
9 11
10 12
10 17
10 18
11 12
11 14
11 16
11 18
11 20
12 18
12 20
13 19
15 18
15 19
15 20
16 17
16 18
